unsat
(define-fun inv ((i Int) (x Int) (y Int) (n Int)) Bool (let ((_let_1 (* 0 i))) (and (<= (+ _let_1 _let_1) 0) (= (+ _let_1 (* 1 x)) 0))))
0.14user 0.00system 0:00.14elapsed 100%CPU (0avgtext+0avgdata 29872maxresident)k
0inputs+8outputs (0major+2158minor)pagefaults 0swaps
